100 2000
1 33
2 3
2 47
2 33
1 19
1 24
2 45
1 46
1 15
2 37
2 20
1 29
2 45
1 48
1 41
1 9
1 16
2 3
1 37
2 1
2 36
2 18
2 36
2 11
2 22
2 15
2 32
2 47
2 7
1 40
1 38
2 17
1 38
2 10
1 26
1 21
2 25
2 27
2 26
1 39
1 49
2 14
1 17
1 39
2 34
2 23
2 4
2 1
1 4
1 44
2 18
2 34
1 29
2 14
1 6
1 19
1 32
2 7
1 42
2 9
2 43
2 42
2 12
2 12
2 6
1 27
2 49
1 13
2 30
1 28
2 8
1 25
2 41
2 5
1 8
2 11
2 31
2 44
1 50
1 48
2 2
1 20
1 22
2 2
1 40
1 10
2 13
2 50
2 30
2 31
2 43
2 28
1 24
2 21
1 35
2 35
2 16
1 5
1 23
1 46
